Traveling Salesman Problem/TSP_generados/Aleatorio1621103694_17.tsp
NAME: Aleatorio1621103694_17.tsp
COMMENT: Randomly generated scenario
TYPE: TSP
DIMENSION: 17
EDGE_WEIGHT_TYPE: ATT
NODE_COORD_SECTION
1 32.84 7.41
2 27.04 18.96
3 41.12 7.89
4 37.89 14.22
5 32.77 37.3
6 42.18 18.36
7 39.95 19.7
8 32.39 22.61
9 8.98 1.25
10 20.87 34.46
11 8.16 46.94
12 1.8 16.56
13 28.97 35.88
14 11.76 22.42
15 8.1 36.86
16 42.17 31.05
17 49.93 44.74
