Traveling Salesman Problem/TSP_generados/Aleatorio1621103694_17.opt.tour
NAME: Aleatorio1621103694_17.opt.tour
COMMENT: Optimal solution for Aleatorio1621103694_17 (198.90774952747356)
TYPE: TOUR
DIMENSION: 17
TOUR_SECTION
1 3 4 6 7 2 8 16 17 5 13 10 11 15 14 12 9
-1
EOF
